34
 1 510 15
 2 630 18
 3 720 20
 4 74 2
 5 304 8
 6 156 4
 7 760 19
 8 820 20
 9 336 8
 10 387 9
 11 748 17
 12 180 4
 13 368 8
 14 940 20
 15 576 12
 16 343 7
 17 500 10
 18 612 12
 19 780 15
 20 742 14
 21 216 4
 22 55 1
 23 56 1
 24 741 13
 25 638 11
 26 944 16
 27 300 5
 28 122 2
 29 558 9
 30 252 4
 31 960 15
 32 390 6
 33 396 6
 34 134 2
170